
  22    4
  10   10   10   10

   0   0   0   0   0   6 2 3 4 5 9 13 
  10  10  10  10  10   5 16 12 11 10 8 
   3  10  10  10  10   4 16 12 11 6 
   2  10  10  10  10   4 11 10 8 7 
   9  10  10  10  10   3 21 11 10 
   9  10  10  10  10   2 21 10 
   7  10  10  10  10   5 21 20 18 16 15 
   7  10  10  10  10   4 21 19 15 14 
   7  10  10  10  10   4 21 17 16 14 
   4  10  10  10  10   3 19 15 14 
   4  10  10  10  10   3 19 17 14 
   7  10  10  10  10   3 19 18 17 
   4  10  10  10  10   3 20 18 17 
   4  10  10  10  10   2 20 18 
  10  10  10  10  10   1 17 
   7  10  10  10  10   1 19 
  10  10  10  10  10   1 22
   8  10  10  10  10   1 22
  10  10  10  10  10   1 22
   5  10  10  10  10   1 22
   1  10  10  10  10   1 22
   0   0   0   0   0   0 
